NAME          DCAP_2_4_3_500_SS360
ROWS
 N  OBJ
 L  CON1
 L  CON2
 L  CON3
 L  CON4
 L  CON5
 L  CON6
 L  CON7
 L  CON8
 L  CON9
 L  CON10
 L  CON11
 L  CON12
 E  CON13
 E  CON14
 E  CON15
 E  CON16
 E  CON17
 E  CON18
 E  CON19
 E  CON20
 E  CON21
 E  CON22
 E  CON23
 E  CON24
COLUMNS
    x[1,1]    OBJ       6.180167      CON1      1.000000    
    x[1,1]    CON7      -1.000000     CON8      -1.000000   
    x[1,1]    CON9      -1.000000   
    x[1,2]    OBJ       6.563535      CON2      1.000000    
    x[1,2]    CON8      -1.000000     CON9      -1.000000   
    x[1,3]    OBJ       7.443064      CON3      1.000000    
    x[1,3]    CON9      -1.000000   
    x[2,1]    OBJ       6.732585      CON4      1.000000    
    x[2,1]    CON10     -1.000000     CON11     -1.000000   
    x[2,1]    CON12     -1.000000   
    x[2,2]    OBJ       5.039546      CON5      1.000000    
    x[2,2]    CON11     -1.000000     CON12     -1.000000   
    x[2,3]    OBJ       6.054841      CON6      1.000000    
    x[2,3]    CON12     -1.000000   
    MARKER    'MARKER'                'INTORG'
    u[1,1]    OBJ       48.076654     CON1      -1.000000   
    u[1,2]    OBJ       20.066487     CON2      -1.000000   
    u[1,3]    OBJ       32.230043     CON3      -1.000000   
    u[2,1]    OBJ       49.996186     CON4      -1.000000   
    u[2,2]    OBJ       49.466655     CON5      -1.000000   
    u[2,3]    OBJ       27.484319     CON6      -1.000000   
    y[1,1,1]  OBJ       9.035249      CON7      1.099310    
    y[1,1,1]  CON13     1.000000    
    y[1,1,2]  OBJ       8.680122      CON8      1.316426    
    y[1,1,2]  CON14     1.000000    
    y[1,1,3]  OBJ       6.903347      CON9      0.724359    
    y[1,1,3]  CON15     1.000000    
    y[1,2,1]  OBJ       5.432064      CON7      0.602599    
    y[1,2,1]  CON16     1.000000    
    y[1,2,2]  OBJ       9.616550      CON8      1.055407    
    y[1,2,2]  CON17     1.000000    
    y[1,2,3]  OBJ       8.828841      CON9      0.700538    
    y[1,2,3]  CON18     1.000000    
    y[1,3,1]  OBJ       5.105578      CON7      0.968678    
    y[1,3,1]  CON19     1.000000    
    y[1,3,2]  OBJ       6.018502      CON8      1.372643    
    y[1,3,2]  CON20     1.000000    
    y[1,3,3]  OBJ       6.555999      CON9      1.271331    
    y[1,3,3]  CON21     1.000000    
    y[1,4,1]  OBJ       7.507422      CON7      1.242945    
    y[1,4,1]  CON22     1.000000    
    y[1,4,2]  OBJ       5.886834      CON8      1.462814    
    y[1,4,2]  CON23     1.000000    
    y[1,4,3]  OBJ       7.261002      CON9      1.116217    
    y[1,4,3]  CON24     1.000000    
    y[2,1,1]  OBJ       7.639051      CON10     1.099310    
    y[2,1,1]  CON13     1.000000    
    y[2,1,2]  OBJ       9.279291      CON11     1.316426    
    y[2,1,2]  CON14     1.000000    
    y[2,1,3]  OBJ       6.320936      CON12     0.724359    
    y[2,1,3]  CON15     1.000000    
    y[2,2,1]  OBJ       9.053931      CON10     0.602599    
    y[2,2,1]  CON16     1.000000    
    y[2,2,2]  OBJ       8.304127      CON11     1.055407    
    y[2,2,2]  CON17     1.000000    
    y[2,2,3]  OBJ       5.598099      CON12     0.700538    
    y[2,2,3]  CON18     1.000000    
    y[2,3,1]  OBJ       6.238707      CON10     0.968678    
    y[2,3,1]  CON19     1.000000    
    y[2,3,2]  OBJ       5.259103      CON11     1.372643    
    y[2,3,2]  CON20     1.000000    
    y[2,3,3]  OBJ       9.155811      CON12     1.271331    
    y[2,3,3]  CON21     1.000000    
    y[2,4,1]  OBJ       8.669394      CON10     1.242945    
    y[2,4,1]  CON22     1.000000    
    y[2,4,2]  OBJ       8.436284      CON11     1.462814    
    y[2,4,2]  CON23     1.000000    
    y[2,4,3]  OBJ       7.428944      CON12     1.116217    
    y[2,4,3]  CON24     1.000000    
    z[1,1]    OBJ       517.406425    CON13     1.000000    
    z[1,2]    OBJ       798.997396    CON14     1.000000    
    z[1,3]    OBJ       700.321355    CON15     1.000000    
    z[2,1]    OBJ       805.859754    CON16     1.000000    
    z[2,2]    OBJ       657.164677    CON17     1.000000    
    z[2,3]    OBJ       986.306931    CON18     1.000000    
    z[3,1]    OBJ       742.591807    CON19     1.000000    
    z[3,2]    OBJ       951.255478    CON20     1.000000    
    z[3,3]    OBJ       641.648892    CON21     1.000000    
    z[4,1]    OBJ       589.252450    CON22     1.000000    
    z[4,2]    OBJ       765.385642    CON23     1.000000    
    z[4,3]    OBJ       698.605597    CON24     1.000000    
    MARKER    'MARKER'                 'INTEND'
RHS
    RHS       CON1      -0.000000     CON2      -0.000000   
    RHS       CON3      -0.000000     CON4      -0.000000   
    RHS       CON5      -0.000000     CON6      -0.000000   
    RHS       CON7      -0.000000     CON8      -0.000000   
    RHS       CON9      -0.000000     CON10     -0.000000   
    RHS       CON11     -0.000000     CON12     -0.000000   
    RHS       CON13     1.000000      CON14     1.000000    
    RHS       CON15     1.000000      CON16     1.000000    
    RHS       CON17     1.000000      CON18     1.000000    
    RHS       CON19     1.000000      CON20     1.000000    
    RHS       CON21     1.000000      CON22     1.000000    
    RHS       CON23     1.000000      CON24     1.000000    
BOUNDS
 BV BOUND     u[1,1]  
 BV BOUND     u[1,2]  
 BV BOUND     u[1,3]  
 BV BOUND     u[2,1]  
 BV BOUND     u[2,2]  
 BV BOUND     u[2,3]  
 BV BOUND     y[1,1,1]
 BV BOUND     y[1,1,2]
 BV BOUND     y[1,1,3]
 BV BOUND     y[1,2,1]
 BV BOUND     y[1,2,2]
 BV BOUND     y[1,2,3]
 BV BOUND     y[1,3,1]
 BV BOUND     y[1,3,2]
 BV BOUND     y[1,3,3]
 BV BOUND     y[1,4,1]
 BV BOUND     y[1,4,2]
 BV BOUND     y[1,4,3]
 BV BOUND     y[2,1,1]
 BV BOUND     y[2,1,2]
 BV BOUND     y[2,1,3]
 BV BOUND     y[2,2,1]
 BV BOUND     y[2,2,2]
 BV BOUND     y[2,2,3]
 BV BOUND     y[2,3,1]
 BV BOUND     y[2,3,2]
 BV BOUND     y[2,3,3]
 BV BOUND     y[2,4,1]
 BV BOUND     y[2,4,2]
 BV BOUND     y[2,4,3]
 BV BOUND     z[1,1]  
 BV BOUND     z[1,2]  
 BV BOUND     z[1,3]  
 BV BOUND     z[2,1]  
 BV BOUND     z[2,2]  
 BV BOUND     z[2,3]  
 BV BOUND     z[3,1]  
 BV BOUND     z[3,2]  
 BV BOUND     z[3,3]  
 BV BOUND     z[4,1]  
 BV BOUND     z[4,2]  
 BV BOUND     z[4,3]  
ENDATA
